34 34
21
3 3 28 21
3 4 31 5
3 5 31 0
3 6 21 28
3 7 21 13
3 8 21 20
3 9 18 25
3 10 28 24
3 11 18 0
3 12 3 22
3 13 21 0
3 14 18 11
3 21 28 0
3 22 3 0
3 25 31 9
3 34 0 0
4 4 24 25
4 5 24 29
4 11 24 14
4 14 24 0
12 34 6 0
